50
100
95
92
91
91
90
88
87
87
86
86
85
81
79
76
76
76
72
72
69
65
63
63
63
63
61
61
59
59
58
56
54
54
52
51
50
47
47
45
45
45
43
40
40
36
35
35
34
32
32
31
